109 123
106 54
214 496
331 418
296 34
447 105
476 5
122 364
177 362
3 440
366 380
349 454
321 480
486 304
361 181
381 282
326 164
411 423
360 413
455 412
253 158
92 166
264 339
253 105
469 223
488 211
410 303
55 474
361 41
21 256
174 361
281 371
321 461
187 419
433 364
188 421
428 135
379 471
325 489
36 252
392 476
338 39
128 84
274 374
385 381
